NAME: random-81-24204
TYPE: TSP
COMMENT: size=81 seed=24204
DIMENSION: 164
EDGE_WEIGHT_TYPE: EUC_2D
NODE_COORD_SECTION
+0 628 395
-0 628 395
+1 655 35
-1 690 255
+2 965 555
-2 306 223
+3 904 676
-3 777 72
+4 840 374
-4 200 649
+5 524 42
-5 651 588
+6 680 141
-6 621 643
+7 468 103
-7 437 648
+8 704 712
-8 288 364
+9 852 120
-9 527 710
+10 855 781
-10 495 146
+11 397 907
-11 176 353
+12 376 214
-12 60 951
+13 947 85
-13 607 550
+14 871 262
-14 238 357
+15 576 347
-15 84 409
+16 44 480
-16 981 420
+17 979 437
-17 799 965
+18 758 306
-18 626 129
+19 427 180
-19 843 102
+20 168 178
-20 868 243
+21 763 441
-21 527 37
+22 74 763
-22 684 234
+23 755 247
-23 779 492
+24 886 299
-24 206 438
+25 616 713
-25 387 460
+26 108 140
-26 721 388
+27 31 361
-27 655 307
+28 299 27
-28 959 932
+29 19 993
-29 666 116
+30 346 666
-30 592 163
+31 30 12
-31 152 638
+32 658 53
-32 372 506
+33 942 131
-33 782 36
+34 315 458
-34 720 302
+35 906 296
-35 932 133
+36 711 389
-36 56 732
+37 346 96
-37 831 478
+38 30 478
-38 247 682
+39 254 26
-39 858 965
+40 386 667
-40 818 487
+41 710 48
-41 546 437
+42 660 579
-42 879 284
+43 242 77
-43 336 586
+44 325 746
-44 207 248
+45 567 559
-45 875 106
+46 904 317
-46 328 187
+47 154 788
-47 694 310
+48 383 824
-48 282 300
+49 746 86
-49 965 888
+50 404 768
-50 748 84
+51 380 966
-51 635 935
+52 35 401
-52 986 836
+53 750 526
-53 815 357
+54 972 208
-54 300 586
+55 425 290
-55 522 985
+56 719 958
-56 776 848
+57 414 62
-57 709 566
+58 421 993
-58 720 894
+59 276 695
-59 645 844
+60 975 799
-60 968 196
+61 266 415
-61 150 133
+62 576 578
-62 118 565
+63 286 600
-63 729 26
+64 619 740
-64 28 988
+65 250 574
-65 500 954
+66 839 506
-66 144 344
+67 581 263
-67 906 802
+68 708 372
-68 865 310
+69 651 732
-69 625 237
+70 86 417
-70 642 282
+71 987 244
-71 198 768
+72 850 789
-72 933 717
+73 748 604
-73 50 208
+74 122 474
-74 858 212
+75 215 768
-75 885 507
+76 798 663
-76 862 535
+77 378 418
-77 941 234
+78 946 47
-78 899 559
+79 914 333
-79 450 716
+80 528 729
-80 890 308
+81 955 24
-81 45 790
PRECEDENCE_SECTION
+0 -0
+1 -1
+2 -2
+3 -3
+4 -4
+5 -5
+6 -6
+7 -7
+8 -8
+9 -9
+10 -10
+11 -11
+12 -12
+13 -13
+14 -14
+15 -15
+16 -16
+17 -17
+18 -18
+19 -19
+20 -20
+21 -21
+22 -22
+23 -23
+24 -24
+25 -25
+26 -26
+27 -27
+28 -28
+29 -29
+30 -30
+31 -31
+32 -32
+33 -33
+34 -34
+35 -35
+36 -36
+37 -37
+38 -38
+39 -39
+40 -40
+41 -41
+42 -42
+43 -43
+44 -44
+45 -45
+46 -46
+47 -47
+48 -48
+49 -49
+50 -50
+51 -51
+52 -52
+53 -53
+54 -54
+55 -55
+56 -56
+57 -57
+58 -58
+59 -59
+60 -60
+61 -61
+62 -62
+63 -63
+64 -64
+65 -65
+66 -66
+67 -67
+68 -68
+69 -69
+70 -70
+71 -71
+72 -72
+73 -73
+74 -74
+75 -75
+76 -76
+77 -77
+78 -78
+79 -79
+80 -80
+81 -81
EOF
